
Gurobi 11.0.3 (linux64) logging started Mon Aug 25 16:57:57 2025

Set parameter LogFile to value "/home/yihong/Coding/OR_SUC/SUC_epstheta_results_bigM100000_thread4/case24_ieee_rts_theta0.001_epsilon0.1_gurobi_seed150000_num_gen100_N_WDR50_load_scaling_factor1_proposed_eps_T4quadra_cost_bc1.03.txt"
Set parameter TimeLimit to value 3600
Gurobi Optimizer version 11.0.3 build v11.0.3rc0 (linux64 - "Ubuntu 20.04.6 LTS")

CPU model: AMD EPYC 7532 32-Core Processor, instruction set [SSE2|AVX|AVX2]
Thread count: 64 physical cores, 128 logical processors, using up to 4 threads

Academic license 2399124 - for non-commercial use only - registered to yi___@ed.ac.uk
Optimize a model with 9128 rows, 5011 columns and 217718 nonzeros
Model fingerprint: 0xbae3de7b
Model has 400 quadratic constraints
Variable types: 4611 continuous, 400 integer (400 binary)
Coefficient statistics:
  Matrix range     [3e-04, 2e+03]
  QMatrix range    [2e-03, 8e-03]
  QLMatrix range   [1e-01, 6e+01]
  Objective range  [1e+00, 1e+00]
  Bounds range     [1e+00, 1e+00]
  RHS range        [5e-02, 9e+03]
Presolve removed 7675 rows and 2319 columns
Presolve time: 0.05s
Presolved: 1453 rows, 2692 columns, 9312 nonzeros
Presolved model has 400 quadratic constraint(s)
Variable types: 2292 continuous, 400 integer (400 binary)

Root relaxation: objective 4.598495e+03, 1226 iterations, 0.02 seconds (0.02 work units)

    Nodes    |    Current Node    |     Objective Bounds      |     Work
 Expl Unexpl |  Obj  Depth IntInf | Incumbent    BestBd   Gap | It/Node Time

     0     0 4598.49477    0    4          - 4598.49477      -     -    0s
H    0     0                    97642.395705 4598.49477  95.3%     -    0s
H    0     0                    91028.922390 4598.49477  94.9%     -    0s
     0     0 20903.4342    0    6 91028.9224 20903.4342  77.0%     -    0s
     0     0 81991.7393    0    5 91028.9224 81991.7393  9.93%     -    0s
     0     0 81992.9885    0    5 91028.9224 81992.9885  9.93%     -    0s
     0     0 82020.9557    0    4 91028.9224 82020.9557  9.90%     -    0s
     0     0 82022.0664    0    4 91028.9224 82022.0664  9.89%     -    0s
     0     0 82022.1293    0    4 91028.9224 82022.1293  9.89%     -    0s
H    0     0                    82027.786593 82022.1293  0.01%     -    0s

Cutting planes:
  Implied bound: 8
  MIR: 1
  Flow cover: 1

Explored 1 nodes (2943 simplex iterations) in 0.34 seconds (0.24 work units)
Thread count was 4 (of 128 available processors)

Solution count 3: 82027.8 91028.9 97642.4 

Optimal solution found (tolerance 1.00e-03)
Warning: max constraint violation (1.7972e-09) exceeds tolerance
Best objective 8.202778659279e+04, best bound 8.202212930799e+04, gap 0.0069%

Gurobi 11.0.3 (linux64) logging started Mon Aug 25 16:57:58 2025

Set parameter LogFile to value "/home/yihong/Coding/OR_SUC/SUC_epstheta_results_bigM100000_thread4/case24_ieee_rts_theta0.001_epsilon0.1_gurobi_seed150000_num_gen100_N_WDR50_load_scaling_factor1_proposed_eps_T4quadra_cost_bc1.03.txt"
Set parameter TimeLimit to value 3600
Gurobi Optimizer version 11.0.3 build v11.0.3rc0 (linux64 - "Ubuntu 20.04.6 LTS")

CPU model: AMD EPYC 7532 32-Core Processor, instruction set [SSE2|AVX|AVX2]
Thread count: 64 physical cores, 128 logical processors, using up to 4 threads

Academic license 2399124 - for non-commercial use only - registered to yi___@ed.ac.uk
Optimize a model with 9128 rows, 5012 columns and 218907 nonzeros
Model fingerprint: 0x13aa19f1
Model has 401 quadratic constraints
Variable types: 4612 continuous, 400 integer (400 binary)
Coefficient statistics:
  Matrix range     [3e-04, 2e+03]
  QMatrix range    [2e-03, 5e+01]
  QLMatrix range   [1e-01, 6e+01]
  Objective range  [1e+00, 1e+00]
  Bounds range     [1e-01, 1e+00]
  RHS range        [1e+00, 8e+04]
  QRHS range       [5e-02, 5e-02]
Presolve removed 7048 rows and 2008 columns
Presolve time: 0.05s
Presolved: 2482 rows, 3404 columns, 14551 nonzeros
Presolved model has 400 quadratic constraint(s)
Presolved model has 1 bilinear constraint(s)

Solving non-convex MIQCP

Variable types: 3000 continuous, 404 integer (404 binary)

Root relaxation: objective 1.421580e-05, 2965 iterations, 0.08 seconds (0.10 work units)

    Nodes    |    Current Node    |     Objective Bounds      |     Work
 Expl Unexpl |  Obj  Depth IntInf | Incumbent    BestBd   Gap | It/Node Time

     0     0    0.00001    0    5          -    0.00001      -     -    0s
     0     0    0.00001    0    5          -    0.00001      -     -    0s
H    0     0                       0.0004817    0.00001  97.0%     -    0s
     0     0    0.00001    0    6    0.00048    0.00001  97.0%     -    0s
     0     0    0.00001    0    6    0.00048    0.00001  97.0%     -    0s
     0     0    0.00001    0    6    0.00048    0.00001  97.0%     -    0s
     0     0    0.00001    0    6    0.00048    0.00001  97.0%     -    0s
     0     0    0.00001    0    6    0.00048    0.00001  97.0%     -    0s
H    0     0                       0.0002407    0.00001  94.0%     -    0s
H    0     0                       0.0002093    0.00001  93.1%     -    0s
     0     2    0.00008    0    5    0.00021    0.00008  62.5%     -    0s
H   31    36                       0.0002093    0.00008  61.6%  56.6    1s
H   78    82                       0.0002092    0.00008  61.6%  27.1    1s
H   99    96                       0.0001339    0.00008  39.9%  23.3    1s
*   99    96              19       0.0001339    0.00008  39.9%  23.3    1s
H  110   100                       0.0001309    0.00008  38.5%  22.7    1s
*  110   100              21       0.0001309    0.00008  38.5%  25.5    1s
H  143   105                       0.0001308    0.00008  38.2%  20.8    1s
*  143   105              25       0.0001308    0.00008  38.2%  20.8    1s
H  166   104                       0.0001308    0.00008  37.8%  18.9    1s
*  166   104              27       0.0001308    0.00008  37.8%  19.0    1s

Cutting planes:
  Implied bound: 28
  MIR: 2
  Flow cover: 14
  Inf proof: 15
  RLT: 3

Explored 298 nodes (7867 simplex iterations) in 1.66 seconds (1.86 work units)
Thread count was 4 (of 128 available processors)

Solution count 9: 0.00013077 0.000130774 0.000130893 ... 0.000481726

Optimal solution found (tolerance 1.00e-03)
Best objective 1.307697657442e-04, best bound 1.307683835991e-04, gap 0.0011%
